NAME : X-n627-k43
COMMENT : "Generated by Uchoa, Pecin, Pessoa, Poggi, Subramanian, and Vidal (2013)"
TYPE : CVRP
DIMENSION : 627
EDGE_WEIGHT_TYPE : EUC_2D
CAPACITY : 110
NODE_COORD_SECTION
1 0 0
2 816 981
3 349 338
4 22 205
5 385 344
6 913 54
7 410 410
8 108 298
9 280 512
10 335 312
11 155 336
12 64 98
13 64 184
14 874 922
15 513 345
16 516 316
17 403 276
18 407 310
19 161 312
20 931 13
21 371 380
22 460 357
23 455 345
24 796 940
25 811 111
26 360 338
27 932 60
28 803 989
29 882 959
30 2 58
31 740 917
32 939 22
33 53 202
34 360 409
35 802 863
36 326 268
37 565 473
38 828 21
39 311 537
40 868 36
41 2 246
42 243 431
43 58 191
44 756 985
45 900 104
46 281 633
47 42 237
48 771 961
49 290 453
50 289 346
51 27 123
52 16 181
53 960 960
54 457 383
55 759 856
56 10 179
57 62 165
58 297 197
59 2 151
60 491 292
61 124 102
62 536 441
63 374 246
64 778 976
65 854 959
66 740 836
67 26 238
68 875 125
69 935 116
70 255 411
71 313 340
72 91 159
73 369 362
74 341 352
75 363 286
76 366 242
77 832 961
78 443 397
79 863 999
80 944 188
81 866 933
82 644 495
83 59 233
84 890 960
85 373 308
86 73 84
87 467 337
88 291 307
89 657 858
90 394 290
91 273 161
92 288 89
93 354 274
94 456 206
95 421 275
96 476 325
97 447 183
98 320 282
99 768 854
100 355 447
101 415 250
102 941 48
103 432 303
104 834 982
105 814 93
106 930 930
107 562 465
108 430 495
109 450 472
110 417 234
111 25 204
112 260 351
113 441 312
114 957 1
115 837 881
116 921 27
117 452 219
118 781 931
119 308 258
120 354 393
121 879 40
122 272 230
123 162 158
124 19 284
125 361 273
126 392 255
127 53 201
128 395 97
129 468 176
130 330 293
131 353 383
132 318 435
133 252 364
134 603 555
135 134 280
136 865 985
137 343 194
138 110 159
139 355 341
140 437 439
141 26 137
142 801 157
143 547 92
144 369 319
145 749 958
146 298 337
147 799 21
148 430 307
149 273 556
150 246 342
151 805 824
152 324 354
153 906 80
154 513 397
155 321 107
156 350 280
157 957 194
158 954 4
159 36 314
160 293 397
161 227 279
162 926 68
163 407 307
164 5 137
165 793 990
166 26 198
167 34 187
168 134 405
169 371 329
170 44 181
171 79 470
172 869 855
173 918 112
174 916 33
175 789 126
176 391 378
177 427 333
178 760 921
179 384 472
180 229 348
181 120 223
182 120 308
183 86 28
184 933 368
185 63 146
186 897 138
187 258 514
188 677 899
189 881 94
190 724 977
191 405 288
192 852 955
193 461 318
194 311 501
195 574 343
196 911 215
197 943 0
198 690 419
199 328 441
200 448 250
201 309 266
202 907 187
203 336 466
204 836 977
205 22 201
206 543 274
207 336 367
208 316 400
209 348 311
210 404 378
211 378 494
212 267 320
213 53 262
214 215 420
215 329 385
216 219 291
217 648 516
218 111 262
219 366 374
220 355 614
221 890 41
222 344 440
223 393 390
224 97 418
225 125 26
226 419 399
227 348 354
228 370 191
229 446 504
230 319 378
231 984 34
232 76 237
233 239 411
234 842 116
235 496 310
236 866 137
237 140 371
238 502 399
239 381 451
240 811 953
241 374 380
242 809 959
243 285 434
244 47 224
245 858 950
246 8 298
247 380 340
248 931 185
249 977 994
250 400 343
251 375 245
252 882 1
253 819 990
254 443 296
255 2 162
256 13 130
257 44 243
258 869 131
259 150 210
260 937 139
261 372 329
262 408 231
263 65 244
264 440 468
265 382 359
266 937 219
267 407 321
268 351 381
269 27 222
270 406 421
271 122 147
272 850 64
273 31 228
274 591 348
275 356 366
276 107 207
277 252 334
278 306 365
279 410 335
280 103 110
281 303 286
282 207 95
283 838 999
284 421 235
285 348 366
286 19 168
287 75 177
288 377 321
289 577 203
290 352 210
291 417 359
292 896 18
293 302 396
294 996 984
295 505 582
296 924 883
297 337 321
298 382 299
299 407 366
300 828 893
301 399 477
302 935 73
303 360 355
304 343 300
305 388 223
306 346 202
307 364 182
308 829 993
309 953 97
310 498 325
311 435 300
312 485 428
313 846 988
314 322 244
315 52 206
316 841 933
317 363 131
318 342 397
319 826 808
320 318 307
321 278 284
322 302 337
323 50 202
324 536 328
325 895 57
326 360 244
327 652 883
328 49 173
329 118 114
330 399 248
331 189 460
332 409 509
333 322 430
334 446 249
335 313 138
336 299 252
337 998 981
338 998 88
339 856 102
340 402 396
341 895 90
342 780 109
343 476 361
344 348 349
345 916 243
346 35 140
347 784 14
348 71 185
349 633 953
350 262 285
351 124 396
352 396 304
353 32 168
354 677 971
355 304 292
356 529 293
357 46 150
358 351 250
359 288 195
360 897 61
361 85 90
362 272 364
363 997 91
364 941 143
365 285 275
366 67 257
367 854 89
368 385 398
369 909 58
370 777 868
371 243 125
372 515 327
373 798 946
374 290 418
375 722 954
376 289 296
377 863 67
378 429 362
379 347 427
380 813 906
381 963 76
382 305 467
383 136 630
384 920 788
385 351 404
386 823 36
387 645 99
388 311 377
389 441 411
390 445 649
391 347 348
392 323 299
393 423 376
394 834 952
395 419 416
396 398 349
397 70 197
398 96 330
399 43 363
400 875 131
401 392 351
402 778 723
403 26 151
404 485 222
405 346 321
406 848 43
407 874 98
408 213 413
409 887 131
410 988 37
411 385 360
412 309 171
413 49 285
414 220 333
415 865 920
416 403 458
417 405 304
418 766 965
419 850 830
420 952 43
421 256 299
422 640 291
423 47 217
424 270 427
425 779 916
426 355 366
427 331 528
428 430 373
429 487 494
430 327 382
431 3 275
432 344 355
433 0 105
434 170 217
435 884 90
436 868 958
437 389 384
438 94 520
439 94 142
440 46 121
441 318 448
442 403 257
443 438 261
444 6 148
445 781 928
446 457 450
447 311 368
448 149 200
449 768 997
450 561 419
451 280 374
452 69 250
453 787 222
454 330 372
455 353 232
456 425 377
457 953 32
458 110 233
459 895 967
460 424 409
461 499 588
462 344 276
463 700 832
464 877 107
465 782 509
466 149 217
467 283 201
468 766 889
469 889 134
470 810 943
471 398 280
472 834 128
473 358 396
474 294 288
475 264 261
476 346 378
477 815 72
478 205 175
479 395 280
480 784 936
481 328 253
482 787 920
483 379 331
484 53 234
485 956 44
486 195 21
487 337 167
488 227 387
489 400 74
490 208 210
491 794 979
492 884 38
493 902 49
494 893 98
495 189 50
496 309 370
497 991 62
498 878 892
499 606 192
500 574 221
501 344 428
502 386 307
503 29 101
504 325 448
505 376 335
506 361 337
507 931 30
508 792 925
509 950 153
510 436 505
511 393 357
512 256 360
513 427 189
514 136 317
515 980 141
516 326 470
517 525 338
518 883 917
519 966 45
520 32 278
521 488 237
522 712 837
523 384 238
524 926 69
525 235 266
526 431 283
527 378 355
528 410 382
529 24 200
530 387 230
531 718 776
532 51 285
533 685 118
534 862 957
535 812 961
536 398 241
537 753 310
538 73 228
539 296 416
540 448 182
541 50 182
542 376 299
543 321 412
544 381 217
545 748 837
546 991 52
547 356 228
548 272 370
549 443 185
550 67 270
551 329 300
552 19 390
553 491 312
554 868 921
555 415 429
556 134 208
557 322 188
558 28 250
559 435 250
560 395 457
561 141 6
562 95 42
563 872 967
564 339 194
565 551 270
566 432 301
567 776 954
568 291 587
569 407 322
570 396 397
571 748 95
572 299 475
573 890 96
574 376 371
575 976 29
576 350 359
577 71 182
578 387 212
579 211 225
580 260 316
581 416 322
582 389 357
583 363 340
584 29 117
585 820 993
586 819 22
587 402 389
588 900 36
589 11 250
590 967 69
591 431 139
592 69 240
593 460 406
594 944 25
595 577 500
596 900 107
597 34 159
598 308 302
599 944 17
600 399 309
601 88 63
602 790 931
603 859 799
604 243 279
605 216 170
606 273 257
607 425 192
608 889 46
609 946 41
610 747 992
611 898 841
612 651 874
613 317 336
614 668 404
615 297 284
616 985 734
617 354 332
618 547 464
619 909 137
620 467 326
621 82 238
622 22 204
623 382 468
624 272 446
625 691 77
626 157 302
627 579 173
PICKUP_AND_DELIVERY_SECTION
1 0 0 1000000000 0 0 0
2 0 0 1000000000 0 0 5
3 0 0 1000000000 0 0 8
4 0 0 1000000000 0 0 8
5 0 0 1000000000 0 0 7
6 0 0 1000000000 0 0 5
7 0 0 1000000000 0 0 9
8 0 0 1000000000 0 0 5
9 0 0 1000000000 0 0 5
10 0 0 1000000000 0 0 9
11 0 0 1000000000 0 9 0
12 0 0 1000000000 0 0 7
13 0 0 1000000000 0 0 5
14 0 0 1000000000 0 0 10
15 0 0 1000000000 0 0 8
16 0 0 1000000000 0 0 10
17 0 0 1000000000 0 0 5
18 0 0 1000000000 0 0 5
19 0 0 1000000000 0 0 8
20 0 0 1000000000 0 0 7
21 0 0 1000000000 0 10 0
22 0 0 1000000000 0 0 9
23 0 0 1000000000 0 0 9
24 0 0 1000000000 0 0 8
25 0 0 1000000000 0 0 6
26 0 0 1000000000 0 0 9
27 0 0 1000000000 0 0 7
28 0 0 1000000000 0 0 10
29 0 0 1000000000 0 0 6
30 0 0 1000000000 0 0 9
31 0 0 1000000000 0 9 0
32 0 0 1000000000 0 0 10
33 0 0 1000000000 0 0 7
34 0 0 1000000000 0 0 7
35 0 0 1000000000 0 0 6
36 0 0 1000000000 0 0 7
37 0 0 1000000000 0 0 6
38 0 0 1000000000 0 0 5
39 0 0 1000000000 0 0 9
40 0 0 1000000000 0 0 7
41 0 0 1000000000 0 6 0
42 0 0 1000000000 0 0 7
43 0 0 1000000000 0 0 7
44 0 0 1000000000 0 0 9
45 0 0 1000000000 0 0 7
46 0 0 1000000000 0 0 6
47 0 0 1000000000 0 0 6
48 0 0 1000000000 0 0 6
49 0 0 1000000000 0 0 6
50 0 0 1000000000 0 0 9
51 0 0 1000000000 0 7 0
52 0 0 1000000000 0 0 6
53 0 0 1000000000 0 0 7
54 0 0 1000000000 0 0 6
55 0 0 1000000000 0 0 5
56 0 0 1000000000 0 0 10
57 0 0 1000000000 0 0 5
58 0 0 1000000000 0 0 8
59 0 0 1000000000 0 0 8
60 0 0 1000000000 0 0 5
61 0 0 1000000000 0 5 0
62 0 0 1000000000 0 0 9
63 0 0 1000000000 0 0 10
64 0 0 1000000000 0 0 6
65 0 0 1000000000 0 0 7
66 0 0 1000000000 0 0 6
67 0 0 1000000000 0 0 8
68 0 0 1000000000 0 0 10
69 0 0 1000000000 0 0 7
70 0 0 1000000000 0 0 6
71 0 0 1000000000 0 7 0
72 0 0 1000000000 0 0 6
73 0 0 1000000000 0 0 8
74 0 0 1000000000 0 0 8
75 0 0 1000000000 0 0 9
76 0 0 1000000000 0 0 10
77 0 0 1000000000 0 0 10
78 0 0 1000000000 0 0 10
79 0 0 1000000000 0 0 6
80 0 0 1000000000 0 0 9
81 0 0 1000000000 0 10 0
82 0 0 1000000000 0 0 5
83 0 0 1000000000 0 0 6
84 0 0 1000000000 0 0 10
85 0 0 1000000000 0 0 9
86 0 0 1000000000 0 0 8
87 0 0 1000000000 0 0 8
88 0 0 1000000000 0 0 7
89 0 0 1000000000 0 0 5
90 0 0 1000000000 0 0 8
91 0 0 1000000000 0 7 0
92 0 0 1000000000 0 0 7
93 0 0 1000000000 0 0 10
94 0 0 1000000000 0 0 10
95 0 0 1000000000 0 0 8
96 0 0 1000000000 0 0 7
97 0 0 1000000000 0 0 5
98 0 0 1000000000 0 0 5
99 0 0 1000000000 0 0 7
100 0 0 1000000000 0 0 6
101 0 0 1000000000 0 10 0
102 0 0 1000000000 0 0 7
103 0 0 1000000000 0 0 5
104 0 0 1000000000 0 0 8
105 0 0 1000000000 0 0 8
106 0 0 1000000000 0 0 8
107 0 0 1000000000 0 0 10
108 0 0 1000000000 0 0 7
109 0 0 1000000000 0 0 6
110 0 0 1000000000 0 0 10
111 0 0 1000000000 0 10 0
112 0 0 1000000000 0 0 8
113 0 0 1000000000 0 0 8
114 0 0 1000000000 0 0 7
115 0 0 1000000000 0 0 5
116 0 0 1000000000 0 0 10
117 0 0 1000000000 0 0 5
118 0 0 1000000000 0 0 6
119 0 0 1000000000 0 0 9
120 0 0 1000000000 0 0 9
121 0 0 1000000000 0 7 0
122 0 0 1000000000 0 0 5
123 0 0 1000000000 0 0 10
124 0 0 1000000000 0 0 8
125 0 0 1000000000 0 0 9
126 0 0 1000000000 0 0 6
127 0 0 1000000000 0 0 5
128 0 0 1000000000 0 0 8
129 0 0 1000000000 0 0 6
130 0 0 1000000000 0 0 5
131 0 0 1000000000 0 8 0
132 0 0 1000000000 0 0 9
133 0 0 1000000000 0 0 10
134 0 0 1000000000 0 0 9
135 0 0 1000000000 0 0 10
136 0 0 1000000000 0 0 7
137 0 0 1000000000 0 0 5
138 0 0 1000000000 0 0 10
139 0 0 1000000000 0 0 7
140 0 0 1000000000 0 0 10
141 0 0 1000000000 0 9 0
142 0 0 1000000000 0 0 10
143 0 0 1000000000 0 0 8
144 0 0 1000000000 0 0 5
145 0 0 1000000000 0 0 10
146 0 0 1000000000 0 0 7
147 0 0 1000000000 0 0 8
148 0 0 1000000000 0 0 5
149 0 0 1000000000 0 0 6
150 0 0 1000000000 0 0 8
151 0 0 1000000000 0 9 0
152 0 0 1000000000 0 0 8
153 0 0 1000000000 0 0 10
154 0 0 1000000000 0 0 9
155 0 0 1000000000 0 0 8
156 0 0 1000000000 0 0 10
157 0 0 1000000000 0 0 8
158 0 0 1000000000 0 0 9
159 0 0 1000000000 0 0 7
160 0 0 1000000000 0 0 10
161 0 0 1000000000 0 5 0
162 0 0 1000000000 0 0 9
163 0 0 1000000000 0 0 10
164 0 0 1000000000 0 0 6
165 0 0 1000000000 0 0 7
166 0 0 1000000000 0 0 10
167 0 0 1000000000 0 0 5
168 0 0 1000000000 0 0 5
169 0 0 1000000000 0 0 6
170 0 0 1000000000 0 0 10
171 0 0 1000000000 0 10 0
172 0 0 1000000000 0 0 6
173 0 0 1000000000 0 0 7
174 0 0 1000000000 0 0 10
175 0 0 1000000000 0 0 6
176 0 0 1000000000 0 0 6
177 0 0 1000000000 0 0 6
178 0 0 1000000000 0 0 7
179 0 0 1000000000 0 0 8
180 0 0 1000000000 0 0 5
181 0 0 1000000000 0 6 0
182 0 0 1000000000 0 0 5
183 0 0 1000000000 0 0 10
184 0 0 1000000000 0 0 7
185 0 0 1000000000 0 0 5
186 0 0 1000000000 0 0 9
187 0 0 1000000000 0 0 6
188 0 0 1000000000 0 0 8
189 0 0 1000000000 0 0 8
190 0 0 1000000000 0 0 5
191 0 0 1000000000 0 6 0
192 0 0 1000000000 0 0 8
193 0 0 1000000000 0 0 7
194 0 0 1000000000 0 0 8
195 0 0 1000000000 0 0 5
196 0 0 1000000000 0 0 7
197 0 0 1000000000 0 0 6
198 0 0 1000000000 0 0 10
199 0 0 1000000000 0 0 5
200 0 0 1000000000 0 0 9
201 0 0 1000000000 0 10 0
202 0 0 1000000000 0 0 10
203 0 0 1000000000 0 0 8
204 0 0 1000000000 0 0 10
205 0 0 1000000000 0 0 5
206 0 0 1000000000 0 0 10
207 0 0 1000000000 0 0 7
208 0 0 1000000000 0 0 6
209 0 0 1000000000 0 0 7
210 0 0 1000000000 0 0 8
211 0 0 1000000000 0 10 0
212 0 0 1000000000 0 0 7
213 0 0 1000000000 0 0 7
214 0 0 1000000000 0 0 5
215 0 0 1000000000 0 0 7
216 0 0 1000000000 0 0 6
217 0 0 1000000000 0 0 7
218 0 0 1000000000 0 0 8
219 0 0 1000000000 0 0 10
220 0 0 1000000000 0 0 9
221 0 0 1000000000 0 8 0
222 0 0 1000000000 0 0 7
223 0 0 1000000000 0 0 8
224 0 0 1000000000 0 0 8
225 0 0 1000000000 0 0 8
226 0 0 1000000000 0 0 5
227 0 0 1000000000 0 0 10
228 0 0 1000000000 0 0 9
229 0 0 1000000000 0 0 8
230 0 0 1000000000 0 0 8
231 0 0 1000000000 0 6 0
232 0 0 1000000000 0 0 8
233 0 0 1000000000 0 0 8
234 0 0 1000000000 0 0 8
235 0 0 1000000000 0 0 10
236 0 0 1000000000 0 0 8
237 0 0 1000000000 0 0 9
238 0 0 1000000000 0 0 9
239 0 0 1000000000 0 0 6
240 0 0 1000000000 0 0 7
241 0 0 1000000000 0 8 0
242 0 0 1000000000 0 0 7
243 0 0 1000000000 0 0 6
244 0 0 1000000000 0 0 10
245 0 0 1000000000 0 0 8
246 0 0 1000000000 0 0 5
247 0 0 1000000000 0 0 8
248 0 0 1000000000 0 0 6
249 0 0 1000000000 0 0 7
250 0 0 1000000000 0 0 8
251 0 0 1000000000 0 5 0
252 0 0 1000000000 0 0 7
253 0 0 1000000000 0 0 10
254 0 0 1000000000 0 0 8
255 0 0 1000000000 0 0 10
256 0 0 1000000000 0 0 6
257 0 0 1000000000 0 0 6
258 0 0 1000000000 0 0 7
259 0 0 1000000000 0 0 6
260 0 0 1000000000 0 0 10
261 0 0 1000000000 0 8 0
262 0 0 1000000000 0 0 5
263 0 0 1000000000 0 0 8
264 0 0 1000000000 0 0 8
265 0 0 1000000000 0 0 8
266 0 0 1000000000 0 0 5
267 0 0 1000000000 0 0 9
268 0 0 1000000000 0 0 5
269 0 0 1000000000 0 0 9
270 0 0 1000000000 0 0 7
271 0 0 1000000000 0 6 0
272 0 0 1000000000 0 0 8
273 0 0 1000000000 0 0 8
274 0 0 1000000000 0 0 8
275 0 0 1000000000 0 0 7
276 0 0 1000000000 0 0 5
277 0 0 1000000000 0 0 9
278 0 0 1000000000 0 0 6
279 0 0 1000000000 0 0 9
280 0 0 1000000000 0 0 8
281 0 0 1000000000 0 8 0
282 0 0 1000000000 0 0 5
283 0 0 1000000000 0 0 9
284 0 0 1000000000 0 0 10
285 0 0 1000000000 0 0 7
286 0 0 1000000000 0 0 6
287 0 0 1000000000 0 0 7
288 0 0 1000000000 0 0 8
289 0 0 1000000000 0 0 9
290 0 0 1000000000 0 0 5
291 0 0 1000000000 0 9 0
292 0 0 1000000000 0 0 9
293 0 0 1000000000 0 0 5
294 0 0 1000000000 0 0 10
295 0 0 1000000000 0 0 9
296 0 0 1000000000 0 0 5
297 0 0 1000000000 0 0 8
298 0 0 1000000000 0 0 10
299 0 0 1000000000 0 0 10
300 0 0 1000000000 0 0 9
301 0 0 1000000000 0 10 0
302 0 0 1000000000 0 0 8
303 0 0 1000000000 0 0 8
304 0 0 1000000000 0 0 6
305 0 0 1000000000 0 0 9
306 0 0 1000000000 0 0 6
307 0 0 1000000000 0 0 6
308 0 0 1000000000 0 0 8
309 0 0 1000000000 0 0 5
310 0 0 1000000000 0 0 7
311 0 0 1000000000 0 6 0
312 0 0 1000000000 0 0 7
313 0 0 1000000000 0 0 8
314 0 0 1000000000 0 0 9
315 0 0 1000000000 0 0 8
316 0 0 1000000000 0 0 6
317 0 0 1000000000 0 0 10
318 0 0 1000000000 0 0 8
319 0 0 1000000000 0 0 6
320 0 0 1000000000 0 0 10
321 0 0 1000000000 0 10 0
322 0 0 1000000000 0 0 7
323 0 0 1000000000 0 0 6
324 0 0 1000000000 0 0 9
325 0 0 1000000000 0 0 5
326 0 0 1000000000 0 0 7
327 0 0 1000000000 0 0 8
328 0 0 1000000000 0 0 5
329 0 0 1000000000 0 0 5
330 0 0 1000000000 0 0 7
331 0 0 1000000000 0 5 0
332 0 0 1000000000 0 0 8
333 0 0 1000000000 0 0 6
334 0 0 1000000000 0 0 6
335 0 0 1000000000 0 0 7
336 0 0 1000000000 0 0 7
337 0 0 1000000000 0 0 8
338 0 0 1000000000 0 0 9
339 0 0 1000000000 0 0 7
340 0 0 1000000000 0 0 6
341 0 0 1000000000 0 7 0
342 0 0 1000000000 0 0 8
343 0 0 1000000000 0 0 6
344 0 0 1000000000 0 0 10
345 0 0 1000000000 0 0 9
346 0 0 1000000000 0 0 9
347 0 0 1000000000 0 0 7
348 0 0 1000000000 0 0 10
349 0 0 1000000000 0 0 10
350 0 0 1000000000 0 0 8
351 0 0 1000000000 0 10 0
352 0 0 1000000000 0 0 7
353 0 0 1000000000 0 0 5
354 0 0 1000000000 0 0 5
355 0 0 1000000000 0 0 8
356 0 0 1000000000 0 0 8
357 0 0 1000000000 0 0 9
358 0 0 1000000000 0 0 5
359 0 0 1000000000 0 0 9
360 0 0 1000000000 0 0 10
361 0 0 1000000000 0 8 0
362 0 0 1000000000 0 0 5
363 0 0 1000000000 0 0 6
364 0 0 1000000000 0 0 10
365 0 0 1000000000 0 0 10
366 0 0 1000000000 0 0 8
367 0 0 1000000000 0 0 5
368 0 0 1000000000 0 0 5
369 0 0 1000000000 0 0 10
370 0 0 1000000000 0 0 8
371 0 0 1000000000 0 10 0
372 0 0 1000000000 0 0 8
373 0 0 1000000000 0 0 5
374 0 0 1000000000 0 0 7
375 0 0 1000000000 0 0 10
376 0 0 1000000000 0 0 6
377 0 0 1000000000 0 0 9
378 0 0 1000000000 0 0 9
379 0 0 1000000000 0 0 5
380 0 0 1000000000 0 0 8
381 0 0 1000000000 0 5 0
382 0 0 1000000000 0 0 10
383 0 0 1000000000 0 0 7
384 0 0 1000000000 0 0 10
385 0 0 1000000000 0 0 9
386 0 0 1000000000 0 0 6
387 0 0 1000000000 0 0 8
388 0 0 1000000000 0 0 5
389 0 0 1000000000 0 0 6
390 0 0 1000000000 0 0 5
391 0 0 1000000000 0 6 0
392 0 0 1000000000 0 0 8
393 0 0 1000000000 0 0 9
394 0 0 1000000000 0 0 6
395 0 0 1000000000 0 0 10
396 0 0 1000000000 0 0 9
397 0 0 1000000000 0 0 10
398 0 0 1000000000 0 0 5
399 0 0 1000000000 0 0 10
400 0 0 1000000000 0 0 8
401 0 0 1000000000 0 10 0
402 0 0 1000000000 0 0 7
403 0 0 1000000000 0 0 6
404 0 0 1000000000 0 0 6
405 0 0 1000000000 0 0 9
406 0 0 1000000000 0 0 5
407 0 0 1000000000 0 0 9
408 0 0 1000000000 0 0 8
409 0 0 1000000000 0 0 5
410 0 0 1000000000 0 0 10
411 0 0 1000000000 0 5 0
412 0 0 1000000000 0 0 9
413 0 0 1000000000 0 0 8
414 0 0 1000000000 0 0 7
415 0 0 1000000000 0 0 7
416 0 0 1000000000 0 0 10
417 0 0 1000000000 0 0 8
418 0 0 1000000000 0 0 6
419 0 0 1000000000 0 0 9
420 0 0 1000000000 0 0 8
421 0 0 1000000000 0 6 0
422 0 0 1000000000 0 0 6
423 0 0 1000000000 0 0 7
424 0 0 1000000000 0 0 7
425 0 0 1000000000 0 0 10
426 0 0 1000000000 0 0 7
427 0 0 1000000000 0 0 5
428 0 0 1000000000 0 0 7
429 0 0 1000000000 0 0 6
430 0 0 1000000000 0 0 5
431 0 0 1000000000 0 6 0
432 0 0 1000000000 0 0 5
433 0 0 1000000000 0 0 6
434 0 0 1000000000 0 0 6
435 0 0 1000000000 0 0 6
436 0 0 1000000000 0 0 10
437 0 0 1000000000 0 0 9
438 0 0 1000000000 0 0 6
439 0 0 1000000000 0 0 5
440 0 0 1000000000 0 0 5
441 0 0 1000000000 0 6 0
442 0 0 1000000000 0 0 8
443 0 0 1000000000 0 0 8
444 0 0 1000000000 0 0 7
445 0 0 1000000000 0 0 7
446 0 0 1000000000 0 0 6
447 0 0 1000000000 0 0 10
448 0 0 1000000000 0 0 8
449 0 0 1000000000 0 0 10
450 0 0 1000000000 0 0 9
451 0 0 1000000000 0 5 0
452 0 0 1000000000 0 0 5
453 0 0 1000000000 0 0 5
454 0 0 1000000000 0 0 8
455 0 0 1000000000 0 0 9
456 0 0 1000000000 0 0 6
457 0 0 1000000000 0 0 9
458 0 0 1000000000 0 0 10
459 0 0 1000000000 0 0 7
460 0 0 1000000000 0 0 9
461 0 0 1000000000 0 10 0
462 0 0 1000000000 0 0 5
463 0 0 1000000000 0 0 5
464 0 0 1000000000 0 0 9
465 0 0 1000000000 0 0 8
466 0 0 1000000000 0 0 8
467 0 0 1000000000 0 0 10
468 0 0 1000000000 0 0 6
469 0 0 1000000000 0 0 10
470 0 0 1000000000 0 0 5
471 0 0 1000000000 0 10 0
472 0 0 1000000000 0 0 9
473 0 0 1000000000 0 0 10
474 0 0 1000000000 0 0 7
475 0 0 1000000000 0 0 5
476 0 0 1000000000 0 0 10
477 0 0 1000000000 0 0 8
478 0 0 1000000000 0 0 6
479 0 0 1000000000 0 0 6
480 0 0 1000000000 0 0 9
481 0 0 1000000000 0 8 0
482 0 0 1000000000 0 0 10
483 0 0 1000000000 0 0 7
484 0 0 1000000000 0 0 5
485 0 0 1000000000 0 0 8
486 0 0 1000000000 0 0 9
487 0 0 1000000000 0 0 7
488 0 0 1000000000 0 0 8
489 0 0 1000000000 0 0 9
490 0 0 1000000000 0 0 6
491 0 0 1000000000 0 9 0
492 0 0 1000000000 0 0 7
493 0 0 1000000000 0 0 10
494 0 0 1000000000 0 0 6
495 0 0 1000000000 0 0 5
496 0 0 1000000000 0 0 9
497 0 0 1000000000 0 0 7
498 0 0 1000000000 0 0 5
499 0 0 1000000000 0 0 10
500 0 0 1000000000 0 0 10
501 0 0 1000000000 0 6 0
502 0 0 1000000000 0 0 6
503 0 0 1000000000 0 0 9
504 0 0 1000000000 0 0 10
505 0 0 1000000000 0 0 7
506 0 0 1000000000 0 0 9
507 0 0 1000000000 0 0 7
508 0 0 1000000000 0 0 5
509 0 0 1000000000 0 0 6
510 0 0 1000000000 0 0 6
511 0 0 1000000000 0 8 0
512 0 0 1000000000 0 0 10
513 0 0 1000000000 0 0 10
514 0 0 1000000000 0 0 7
515 0 0 1000000000 0 0 7
516 0 0 1000000000 0 0 5
517 0 0 1000000000 0 0 10
518 0 0 1000000000 0 0 10
519 0 0 1000000000 0 0 7
520 0 0 1000000000 0 0 7
521 0 0 1000000000 0 7 0
522 0 0 1000000000 0 0 8
523 0 0 1000000000 0 0 10
524 0 0 1000000000 0 0 5
525 0 0 1000000000 0 0 6
526 0 0 1000000000 0 0 6
527 0 0 1000000000 0 0 7
528 0 0 1000000000 0 0 5
529 0 0 1000000000 0 0 5
530 0 0 1000000000 0 0 10
531 0 0 1000000000 0 10 0
532 0 0 1000000000 0 0 8
533 0 0 1000000000 0 0 5
534 0 0 1000000000 0 0 9
535 0 0 1000000000 0 0 10
536 0 0 1000000000 0 0 9
537 0 0 1000000000 0 0 7
538 0 0 1000000000 0 0 10
539 0 0 1000000000 0 0 7
540 0 0 1000000000 0 0 8
541 0 0 1000000000 0 6 0
542 0 0 1000000000 0 0 6
543 0 0 1000000000 0 0 7
544 0 0 1000000000 0 0 5
545 0 0 1000000000 0 0 6
546 0 0 1000000000 0 0 7
547 0 0 1000000000 0 0 10
548 0 0 1000000000 0 0 5
549 0 0 1000000000 0 0 5
550 0 0 1000000000 0 0 10
551 0 0 1000000000 0 8 0
552 0 0 1000000000 0 0 10
553 0 0 1000000000 0 0 7
554 0 0 1000000000 0 0 8
555 0 0 1000000000 0 0 8
556 0 0 1000000000 0 0 6
557 0 0 1000000000 0 0 6
558 0 0 1000000000 0 0 7
559 0 0 1000000000 0 0 6
560 0 0 1000000000 0 0 10
561 0 0 1000000000 0 6 0
562 0 0 1000000000 0 0 7
563 0 0 1000000000 0 0 9
564 0 0 1000000000 0 0 10
565 0 0 1000000000 0 0 5
566 0 0 1000000000 0 0 8
567 0 0 1000000000 0 0 7
568 0 0 1000000000 0 0 6
569 0 0 1000000000 0 0 7
570 0 0 1000000000 0 0 6
571 0 0 1000000000 0 10 0
572 0 0 1000000000 0 0 10
573 0 0 1000000000 0 0 9
574 0 0 1000000000 0 0 5
575 0 0 1000000000 0 0 5
576 0 0 1000000000 0 0 6
577 0 0 1000000000 0 0 8
578 0 0 1000000000 0 0 7
579 0 0 1000000000 0 0 9
580 0 0 1000000000 0 0 7
581 0 0 1000000000 0 5 0
582 0 0 1000000000 0 0 8
583 0 0 1000000000 0 0 9
584 0 0 1000000000 0 0 6
585 0 0 1000000000 0 0 5
586 0 0 1000000000 0 0 8
587 0 0 1000000000 0 0 8
588 0 0 1000000000 0 0 8
589 0 0 1000000000 0 0 8
590 0 0 1000000000 0 0 6
591 0 0 1000000000 0 10 0
592 0 0 1000000000 0 0 8
593 0 0 1000000000 0 0 7
594 0 0 1000000000 0 0 6
595 0 0 1000000000 0 0 7
596 0 0 1000000000 0 0 8
597 0 0 1000000000 0 0 8
598 0 0 1000000000 0 0 8
599 0 0 1000000000 0 0 9
600 0 0 1000000000 0 0 8
601 0 0 1000000000 0 5 0
602 0 0 1000000000 0 0 7
603 0 0 1000000000 0 0 9
604 0 0 1000000000 0 0 9
605 0 0 1000000000 0 0 9
606 0 0 1000000000 0 0 8
607 0 0 1000000000 0 0 8
608 0 0 1000000000 0 0 10
609 0 0 1000000000 0 0 5
610 0 0 1000000000 0 0 10
611 0 0 1000000000 0 8 0
612 0 0 1000000000 0 0 10
613 0 0 1000000000 0 0 10
614 0 0 1000000000 0 0 9
615 0 0 1000000000 0 0 6
616 0 0 1000000000 0 0 7
617 0 0 1000000000 0 0 5
618 0 0 1000000000 0 0 10
619 0 0 1000000000 0 0 9
620 0 0 1000000000 0 0 10
621 0 0 1000000000 0 7 0
622 0 0 1000000000 0 0 9
623 0 0 1000000000 0 0 8
624 0 0 1000000000 0 0 6
625 0 0 1000000000 0 0 5
626 0 0 1000000000 0 0 8
627 0 0 1000000000 0 0 7
